Route #1: 9 48 63 25 21 45 52 22 12 
Route #2: 64 34 39 53 6 
Route #3: 7 24 51 27 66 5 
Route #4: 16 50 42 36 44 40 46 
Route #5: 30 62 61 3 57 60 
Route #6: 4 49 35 20 19 1 11 14 
Route #7: 43 32 23 8 37 65 59 41 
Route #8: 58 54 56 15 28 
Route #9: 2 26 18 31 33 13 55 
Route #10: 47 29 10 38 17 
cost 1236.19